NAME : X1
COMMENT : 48 capitals of the US (Padberg/Rinaldi)
TYPE : TSP
DIMENSION : 48
EDGE_WEIGHT_TYPE : ATT
NODE_COORD_SECTION
1	757	875
2	827	1353
3	217	17
4	619	359
5	404	981
6	314	1488
7	1127 908
8	58	902
9	1075 1426
10	1147 102
11	1119 1357
12	1085 201
13	391	44
14	175	1357
15	1003 65
16	221	795
17	1349 1316
18	180	57
19	252	1412
20	37	131
21	1111 1090
22	1458 299
23	78	1293
24	37	510
25	1049 1176
26	779	1416
27	214	446
28	677	1191
29	1371 1150
30	374	1005
31	786	572
32	1021 398
33	1470 687
34	861	612
35	1019 459
36	566	994
37	1001 752
38	1256 516
39	345	500
40	245	1422
41	1251 32
42	662	155
43	82	58
44	1007 763
45	949	699
46	1074 1437
47	541	1244
48	1164 774
EOF